NAME : local_5
TYPE : ATSP
DIMENSION : 5
EDGE_WEIGHT_TYPE : EXPLICIT
EDGE_WEIGHT_FORMAT : FULL_MATRIX
EDGE_WEIGHT_SECTION
0 10000000 610 420 10000000 
0 0 10000000 10000000 293 
0 10000000 0 395 10000000 
0 10000000 395 0 10000000 
0 10000000 10000000 10000000 0 
EOF